id: 1769
name: watson_1
group: mittelmann/misc
method: 2

Gurobi 7.0.2 (linux64, Matlab) logging started Tue Apr 10 17:11:27 2018


Gurobi 7.0.2 (linux64) logging started Tue Apr 10 17:11:27 2018

Optimize a model with 201155 rows, 383927 columns and 1052028 nonzeros
Coefficient statistics:
  Matrix range     [2e-02, 9e+00]
  Objective range  [7e-04, 7e-04]
  Bounds range     [2e+02, 1e+03]
  RHS range        [1e+00, 1e+03]
Presolve removed 139709 rows and 213438 columns
Presolve time: 0.58s
Presolved: 61446 rows, 170489 columns, 738201 nonzeros

Ordering time: 0.05s

Barrier statistics:
 AA' NZ     : 6.810e+05
 Factor NZ  : 1.787e+06 (roughly 100 MBytes of memory)
 Factor Ops : 7.205e+07 (less than 1 second per iteration)
 Threads    : 4

                  Objective                Residual
Iter       Primal          Dual         Primal    Dual     Compl     Time
   0  -1.07854341e+03 -5.49600000e+04  1.45e+04 1.04e-02  2.54e+01     1s
   1  -1.24127485e+03 -8.27916910e+04  1.26e+04 6.59e-02  2.17e+01     1s
   2  -1.72145821e+03 -1.01579000e+05  9.40e+03 6.49e-02  1.64e+01     1s
   3  -2.32802983e+03 -1.26332078e+05  7.01e+03 4.52e-02  1.22e+01     1s
   4  -2.29435995e+03 -1.30587925e+05  4.55e+03 3.19e-02  8.17e+00     1s
   5  -2.03893072e+03 -1.24621989e+05  3.00e+03 1.92e-02  5.30e+00     1s
   6  -1.88722929e+03 -1.09787707e+05  2.26e+03 1.29e-02  3.93e+00     1s
   7  -1.62187947e+03 -1.01641416e+05  1.52e+03 1.01e-02  2.76e+00     1s
   8  -1.47971430e+03 -8.34118728e+04  1.17e+03 5.28e-03  1.98e+00     1s
   9  -1.36872498e+03 -7.98207529e+04  9.49e+02 4.73e-03  1.66e+00     1s
  10  -1.24082015e+03 -7.43735772e+04  7.31e+02 3.95e-03  1.32e+00     1s
  11  -1.06886696e+03 -6.36880831e+04  4.64e+02 2.56e-03  8.70e-01     1s
  12  -9.73072125e+02 -5.50311346e+04  3.39e+02 1.78e-03  6.42e-01     1s
  13  -8.91353687e+02 -4.79369017e+04  2.33e+02 1.31e-03  4.74e-01     1s
  14  -8.80876558e+02 -4.10125161e+04  2.18e+02 9.63e-04  3.96e-01     1s
  15  -8.12739008e+02 -3.16667401e+04  1.36e+02 5.71e-04  2.60e-01     2s
  16  -7.01106549e+02 -2.41190781e+04  3.20e+01 3.65e-04  1.50e-01     2s
  17  -6.87157998e+02 -6.16287831e+03  3.58e-03 7.46e-05  3.15e-02     2s
  18  -7.62610191e+02 -2.83221491e+03  2.18e-04 3.46e-05  1.19e-02     2s
  19  -8.73111100e+02 -2.34432895e+03  9.45e-05 2.59e-05  8.48e-03     2s
  20  -9.46805128e+02 -1.98786531e+03  7.67e-05 1.88e-05  6.01e-03     2s
  21  -9.98571869e+02 -1.94757214e+03  6.96e-05 1.84e-05  5.50e-03     2s
  22  -1.07277530e+03 -1.85244329e+03  6.03e-05 1.53e-05  4.53e-03     2s
  23  -1.16650664e+03 -1.79911101e+03  4.97e-05 1.29e-05  3.70e-03     2s
  24  -1.20765342e+03 -1.78167051e+03  4.53e-05 1.13e-05  3.36e-03     2s
  25  -1.26655894e+03 -1.75660936e+03  3.89e-05 9.63e-06  2.87e-03     2s
  26  -1.34382807e+03 -1.73509543e+03  3.08e-05 7.98e-06  2.31e-03     2s
  27  -1.36471447e+03 -1.72934453e+03  2.88e-05 7.33e-06  2.15e-03     2s
  28  -1.38560416e+03 -1.72612881e+03  2.67e-05 6.95e-06  2.01e-03     2s
  29  -1.40555112e+03 -1.72159213e+03  2.49e-05 6.35e-06  1.87e-03     2s
  30  -1.44165695e+03 -1.71400327e+03  2.15e-05 5.24e-06  1.61e-03     2s
  31  -1.48076011e+03 -1.70412798e+03  1.79e-05 3.27e-06  1.29e-03     2s
  32  -1.50620952e+03 -1.70260098e+03  1.56e-05 2.92e-06  1.14e-03     2s
  33  -1.53486039e+03 -1.69904753e+03  1.31e-05 2.09e-06  9.41e-04     2s
  34  -1.55955205e+03 -1.69806073e+03  1.09e-05 1.84e-06  7.97e-04     2s
  35  -1.57911603e+03 -1.69618768e+03  9.19e-06 1.23e-06  6.64e-04     2s
  36  -1.60968021e+03 -1.69537398e+03  6.61e-06 8.23e-07  4.84e-04     3s
  37  -1.62483730e+03 -1.69481029e+03  5.35e-06 5.72e-07  3.93e-04     3s
  38  -1.63229767e+03 -1.69454748e+03  4.74e-06 4.77e-07  3.48e-04     3s
  39  -1.63497240e+03 -1.69448804e+03  4.53e-06 4.59e-07  3.33e-04     3s
  40  -1.64450292e+03 -1.69435069e+03  3.76e-06 3.85e-07  2.79e-04     3s
  41  -1.65790586e+03 -1.69419670e+03  2.68e-06 3.37e-07  2.05e-04     3s
  42  -1.65957321e+03 -1.69408112e+03  2.55e-06 2.97e-07  1.94e-04     3s
  43  -1.66844397e+03 -1.69396071e+03  1.85e-06 2.51e-07  1.45e-04     3s
  44  -1.67257014e+03 -1.69376171e+03  1.54e-06 1.68e-07  1.19e-04     3s
  45  -1.67834456e+03 -1.69367754e+03  1.10e-06 1.18e-07  8.60e-05     3s
  46  -1.68133627e+03 -1.69365092e+03  8.69e-07 1.00e-07  6.92e-05     3s
  47  -1.68597259e+03 -1.69360208e+03  5.20e-07 8.44e-08  4.36e-05     3s
  48  -1.68786945e+03 -1.69357213e+03  3.80e-07 6.27e-08  3.26e-05     3s
  49  -1.68836105e+03 -1.69355052e+03  3.44e-07 5.18e-08  2.95e-05     3s
  50  -1.69036405e+03 -1.69353390e+03  2.04e-07 4.16e-08  1.83e-05     3s
  51  -1.69143809e+03 -1.69349242e+03  1.28e-07 1.16e-08  1.14e-05     3s
  52  -1.69204385e+03 -1.69349058e+03  8.99e-08 9.83e-09  8.07e-06     3s
  53  -1.69280598e+03 -1.69348461e+03  5.04e-08 4.85e-09  3.80e-06     3s
  54  -1.69302515e+03 -1.69348212e+03  3.27e-08 3.16e-09  2.55e-06     3s
  55  -1.69315069e+03 -1.69347912e+03  2.32e-08 1.36e-09  1.81e-06     3s
  56  -1.69331301e+03 -1.69347668e+03  1.12e-08 1.81e-10  8.84e-07     4s
  57  -1.69339234e+03 -1.69347652e+03  5.53e-09 1.64e-10  4.57e-07     4s
  58  -1.69346140e+03 -1.69347557e+03  4.10e-09 3.99e-11  7.70e-08     4s
  59  -1.69347488e+03 -1.69347531e+03  1.37e-09 4.13e-11  2.36e-09     4s
  60  -1.69347524e+03 -1.69347527e+03  2.51e-09 5.18e-11  1.51e-10     4s
  61  -1.69347526e+03 -1.69347527e+03  1.66e-09 3.67e-11  1.84e-11     4s

Barrier solved model in 61 iterations and 3.84 seconds
Optimal objective -1.69347526e+03

Crossover log...

       0 DPushes remaining with DInf 1.4278290e+00                 4s

    8013 PPushes remaining with PInf 1.8859326e-03                 4s
       0 PPushes remaining with PInf 0.0000000e+00                 4s

  Push phase complete: Pinf 0.0000000e+00, Dinf 2.3764012e+00      4s

Iteration    Objective       Primal Inf.    Dual Inf.      Time
   44744   -1.6934753e+03   0.000000e+00   2.376401e+00      4s
   55932   -1.6934753e+03   0.000000e+00   0.000000e+00      5s

Solved in 55932 iterations and 5.09 seconds
Optimal objective -1.693475267e+03
status: OPTIMAL
